% Paramètres d'entrée
              
grilleIn = [|-11,-13,-4,     0, 0,  4, 29
            | -6, -5,      7, 0, 0,  0,  0
            | -7,         0, 0, 0, 0,  0,  0
            |           0, 10, 1, -1, 0, 24, 0
            |            0,  0,  0, 36, 0,  0    , -8
            |              0,  16,  0, 0, 0     , -2, -9
            |                0,  0,  0, 0     , -3,-12,-10|];
